53
Time limit set to 60 seconds
Running CP solver
/home/omastto1/General-Optimization-Solver/src/solvers/mmrcpsp.py:42(stream:108:6): Warning: Cumulative expression 'pulse': height is zero, expression is zero everywhere.
                                                                                               VarCumulAtom_149 = pulse(task_0_mode_0, 0)
/home/omastto1/General-Optimization-Solver/src/solvers/mmrcpsp.py:42(stream:108:1256): Warning: Cumulative expression 'pulse': height is zero, expression is zero everywhere.
                                                                                                  VarCumulAtom_198 = pulse(task_17_mode_0, 0)
/home/omastto1/General-Optimization-Solver/src/solvers/mmrcpsp.py:42(stream:109:6): Warning: Cumulative expression 'pulse': height is zero, expression is zero everywhere.
                                                                                               VarCumulAtom_202 = pulse(task_0_mode_0, 0)
/home/omastto1/General-Optimization-Solver/src/solvers/mmrcpsp.py:42(stream:109:1253): Warning: Cumulative expression 'pulse': height is zero, expression is zero everywhere.
                                                                                                  VarCumulAtom_251 = pulse(task_17_mode_0, 0)
 ! --------------------------------------------------- CP Optimizer 20.1.0.0 --
 ! Minimization problem - 69 variables, 51 constraints
 ! TimeLimit            = 60
 ! Workers              = 14
 ! LogVerbosity         = Terse
 ! Initial process time : 0.01s (0.01s extraction + 0.00s propagation)
 !  . Log search space  : 154.1 (before), 154.1 (after)
 !  . Memory usage      : 754.6 kB (before), 754.6 kB (after)
 ! Using parallel search with 14 workers.
 ! ----------------------------------------------------------------------------
 !          Best Branches  Non-fixed    W       Branch decision
                        0         69                 -
 + New bound is 38
 ! Using iterative diving.
 ! Using temporal relaxation.
 *            50       44  0.72s        1      (gap is 24.00%)
 *            48      231  0.72s        1      (gap is 20.83%)
 *            46     1283  0.72s        1      (gap is 17.39%)
 *            44      388  0.72s        3      (gap is 13.64%)
 *            40     2151  0.72s        3      (gap is 5.00%)
 *            39     1369  0.72s        5      (gap is 2.56%)
 *            38     2373  0.72s        5      (gap is 0.00%)
 ! ----------------------------------------------------------------------------
 ! Search completed, 7 solutions found.
 ! Best objective         : 38 (optimal - effective tol. is 0)
 ! Best bound             : 38
 ! ----------------------------------------------------------------------------
 ! Number of branches     : 124161
 ! Number of fails        : 32904
 ! Total memory usage     : 9.7 MB (9.6 MB CP Optimizer + 0.1 MB Concert)
 ! Time spent in solve    : 1.28s (1.27s engine + 0.01s extraction)
 ! Search speed (br. / s) : 97764.6
 ! ----------------------------------------------------------------------------
task_0: (start=0, end=0, size=0, length=0)
Task 0 is scheduled in mode 0 from 0 to 0
task_1: (start=3, end=12, size=9, length=9)
Task 1 is scheduled in mode 2 from 3 to 12
task_2: (start=0, end=9, size=9, length=9)
Task 2 is scheduled in mode 1 from 0 to 9
task_3: (start=0, end=3, size=3, length=3)
Task 3 is scheduled in mode 0 from 0 to 3
task_4: (start=9, end=13, size=4, length=4)
Task 4 is scheduled in mode 1 from 9 to 13
task_5: (start=12, end=14, size=2, length=2)
Task 5 is scheduled in mode 0 from 12 to 14
task_6: (start=14, end=18, size=4, length=4)
Task 6 is scheduled in mode 0 from 14 to 18
task_7: (start=13, end=20, size=7, length=7)
Task 7 is scheduled in mode 1 from 13 to 20
task_8: (start=23, end=32, size=9, length=9)
Task 8 is scheduled in mode 2 from 23 to 32
task_9: (start=18, end=23, size=5, length=5)
Task 9 is scheduled in mode 2 from 18 to 23
task_10: (start=20, end=23, size=3, length=3)
Task 10 is scheduled in mode 0 from 20 to 23
task_11: (start=23, end=29, size=6, length=6)
Task 11 is scheduled in mode 2 from 23 to 29
task_12: (start=14, end=20, size=6, length=6)
Task 12 is scheduled in mode 2 from 14 to 20
task_13: (start=20, end=30, size=10, length=10)
Task 13 is scheduled in mode 2 from 20 to 30
task_14: (start=31, end=38, size=7, length=7)
Task 14 is scheduled in mode 1 from 31 to 38
task_15: (start=30, end=31, size=1, length=1)
Task 15 is scheduled in mode 0 from 30 to 31
task_16: (start=32, end=38, size=6, length=6)
Task 16 is scheduled in mode 0 from 32 to 38
task_17: (start=38, end=38, size=0, length=0)
Task 17 is scheduled in mode 0 from 38 to 38
Optimal solution found
Objective value: 38
Solution is optimal.
